MARKOV
228
 2 2 2 2 2 2 2 2 2 2 2 2 2 2 2 2 2 2 2 2 2 2 2 2 2 2 2 2 2 2 2 2 2 2 2 2 2 2 2 2 2 2 2 2 2 2 2 2 2 2 2 2 2 2 2 2 2 2 2 2 2 2 2 2 2 2 2 2 2 2 2 2 2 2 2 2 2 2 2 2 2 2 2 2 2 2 2 2 2 2 2 2 2 2 2 2 2 2 2 2 2 2 2 2 2 2 2 2 2 2 2 2 2 2 2 2 2 2 2 2 2 2 2 2 2 2 2 2 2 2 2 2 2 2 2 2 2 2 2 2 2 2 2 2 2 2 2 2 2 2 2 2 2 2 2 2 2 2 2 2 2 2 2 2 2 2 2 2 2 2 2 2 2 2 2 2 2 2 2 2 2 2 2 2 2 2 2 2 2 2 2 2 2 2 2 2 2 2 2 2 2 2 2 2 2 2 2 2 2 2 2 2 2 2 2 2 2 2 2 2 2 2 2 2 2 2 2 2
853
1	0 
1	1 
1	2 
1	3 
1	4 
1	5 
1	6 
1	7 
1	8 
1	9 
1	10 
1	11 
1	12 
1	13 
1	14 
1	15 
1	16 
1	17 
1	18 
1	19 
1	20 
1	21 
1	22 
1	23 
1	24 
1	25 
1	26 
1	27 
1	28 
1	29 
1	30 
1	31 
1	32 
1	33 
1	34 
1	35 
1	36 
1	37 
1	38 
1	39 
1	40 
1	41 
1	42 
1	43 
1	44 
1	45 
1	46 
1	47 
1	48 
1	49 
1	50 
1	51 
1	52 
1	53 
1	54 
1	55 
1	56 
1	57 
1	58 
1	59 
1	60 
1	61 
1	62 
1	63 
1	64 
1	65 
1	66 
1	67 
1	68 
1	69 
1	70 
1	71 
1	72 
1	73 
1	74 
1	75 
1	76 
1	77 
1	78 
1	79 
1	80 
1	81 
1	82 
1	83 
1	84 
1	85 
1	86 
1	87 
1	88 
1	89 
1	90 
1	91 
1	92 
1	93 
1	94 
1	95 
1	96 
1	97 
1	98 
1	99 
1	100 
1	101 
1	102 
1	103 
1	104 
1	105 
1	106 
1	107 
1	108 
1	109 
1	110 
1	111 
1	112 
1	113 
1	114 
1	115 
1	116 
1	117 
1	118 
1	119 
1	120 
1	121 
1	122 
1	123 
1	124 
1	125 
1	126 
1	127 
1	128 
1	129 
1	130 
1	131 
1	132 
1	133 
1	134 
1	135 
1	136 
1	137 
1	138 
1	139 
1	140 
1	141 
1	142 
1	143 
1	144 
1	145 
1	146 
1	147 
1	148 
1	149 
1	150 
1	151 
1	152 
1	153 
1	154 
1	155 
1	156 
1	157 
1	158 
1	159 
1	160 
1	161 
1	162 
1	163 
1	164 
1	165 
1	166 
1	167 
1	168 
1	169 
1	170 
1	171 
1	172 
1	173 
1	174 
1	175 
1	176 
1	177 
1	178 
1	179 
1	180 
1	181 
1	182 
1	183 
1	184 
1	185 
1	186 
1	187 
1	188 
1	189 
1	190 
1	191 
1	192 
1	193 
1	194 
1	195 
1	196 
1	197 
1	198 
1	199 
1	200 
1	201 
1	202 
1	203 
1	204 
1	205 
1	206 
1	207 
1	208 
1	209 
1	210 
1	211 
1	212 
1	213 
1	214 
1	215 
1	216 
1	217 
1	218 
1	219 
1	220 
1	221 
1	222 
1	223 
1	224 
1	225 
1	226 
1	227 
2	1 2 
2	1 3 
2	1 4 
2	1 40 
2	1 41 
2	1 125 
2	1 128 
2	2 3 
2	2 4 
2	2 6 
2	2 9 
2	3 8 
2	3 9 
2	3 125 
2	3 209 
2	4 40 
2	4 69 
2	5 7 
2	5 8 
2	5 9 
2	5 209 
2	5 210 
2	5 225 
2	6 9 
2	6 10 
2	7 9 
2	7 10 
2	7 15 
2	7 16 
2	7 225 
2	8 9 
2	8 209 
2	9 10 
2	10 15 
2	11 12 
2	11 13 
2	11 20 
2	11 66 
2	11 97 
2	11 98 
2	12 13 
2	12 67 
2	12 166 
2	13 20 
2	14 79 
2	14 83 
2	14 107 
2	14 108 
2	15 16 
2	15 18 
2	15 22 
2	16 17 
2	16 18 
2	16 225 
2	16 226 
2	17 18 
2	17 19 
2	17 96 
2	17 224 
2	17 226 
2	18 19 
2	18 22 
2	19 21 
2	19 22 
2	19 96 
2	19 99 
2	20 21 
2	20 97 
2	20 99 
2	21 22 
2	21 99 
2	23 27 
2	23 28 
2	23 30 
2	23 33 
2	23 39 
2	23 78 
2	24 25 
2	24 26 
2	24 27 
2	24 28 
2	24 29 
2	24 32 
2	25 26 
2	25 27 
2	25 45 
2	26 31 
2	26 32 
2	27 28 
2	27 39 
2	27 45 
2	28 29 
2	28 30 
2	29 30 
2	29 32 
2	29 152 
2	29 154 
2	30 33 
2	30 152 
2	30 170 
2	30 212 
2	30 213 
2	31 32 
2	31 102 
2	32 102 
2	32 154 
2	33 78 
2	33 170 
2	33 171 
2	34 35 
2	34 37 
2	34 38 
2	34 182 
2	34 184 
2	34 206 
2	34 207 
2	35 36 
2	35 38 
2	35 63 
2	35 183 
2	35 184 
2	36 38 
2	36 63 
2	36 64 
2	36 117 
2	36 204 
2	37 182 
2	37 199 
2	37 200 
2	37 206 
2	38 117 
2	38 207 
2	39 43 
2	39 45 
2	39 76 
2	39 78 
2	40 41 
2	40 68 
2	40 69 
2	40 70 
2	41 56 
2	41 58 
2	41 68 
2	41 124 
2	41 128 
2	41 160 
2	42 106 
2	42 191 
2	42 220 
2	42 222 
2	42 223 
2	43 44 
2	43 45 
2	43 76 
2	44 45 
2	46 49 
2	46 50 
2	46 90 
2	46 122 
2	46 198 
2	46 208 
2	47 48 
2	47 49 
2	47 50 
2	47 131 
2	47 133 
2	47 186 
2	48 49 
2	48 55 
2	48 119 
2	48 120 
2	48 186 
2	48 188 
2	49 50 
2	49 120 
2	49 122 
2	50 90 
2	50 94 
2	50 132 
2	50 133 
2	51 52 
2	51 172 
2	51 174 
2	51 191 
2	52 77 
2	52 171 
2	52 172 
2	53 54 
2	53 55 
2	53 185 
2	53 187 
2	53 194 
2	54 137 
2	54 187 
2	54 192 
2	54 194 
2	54 197 
2	55 119 
2	55 146 
2	55 185 
2	55 188 
2	55 194 
2	56 58 
2	56 61 
2	56 68 
2	56 71 
2	57 59 
2	57 61 
2	57 74 
2	57 75 
2	57 103 
2	58 59 
2	58 60 
2	58 61 
2	58 160 
2	59 60 
2	59 61 
2	59 101 
2	59 103 
2	59 104 
2	60 85 
2	60 88 
2	60 101 
2	60 160 
2	61 71 
2	61 74 
2	62 111 
2	62 113 
2	62 114 
2	62 145 
2	62 178 
2	62 179 
2	62 224 
2	63 64 
2	63 65 
2	63 183 
2	64 65 
2	64 66 
2	64 67 
2	64 204 
2	64 205 
2	65 67 
2	65 165 
2	66 67 
2	66 98 
2	66 205 
2	67 165 
2	67 166 
2	68 70 
2	68 71 
2	69 70 
2	70 71 
2	70 72 
2	71 72 
2	71 74 
2	72 73 
2	72 74 
2	73 74 
2	73 75 
2	74 75 
2	76 77 
2	76 78 
2	77 78 
2	77 171 
2	78 171 
2	79 81 
2	79 83 
2	79 108 
2	79 132 
2	79 133 
2	79 139 
2	80 81 
2	80 84 
2	80 92 
2	80 94 
2	80 130 
2	80 189 
2	80 190 
2	81 82 
2	81 83 
2	81 84 
2	81 130 
2	81 132 
2	82 83 
2	82 84 
2	84 190 
2	85 88 
2	85 89 
2	85 155 
2	85 160 
2	86 87 
2	86 150 
2	86 156 
2	86 196 
2	87 89 
2	87 149 
2	87 150 
2	87 156 
2	87 159 
2	88 100 
2	88 101 
2	88 153 
2	88 155 
2	89 149 
2	89 155 
2	89 159 
2	89 160 
2	90 93 
2	90 94 
2	90 198 
2	91 92 
2	91 93 
2	91 200 
2	92 93 
2	92 94 
2	92 189 
2	93 94 
2	93 198 
2	93 200 
2	94 130 
2	94 132 
2	95 96 
2	95 97 
2	95 98 
2	95 99 
2	95 201 
2	95 203 
2	96 99 
2	96 113 
2	96 201 
2	96 224 
2	97 98 
2	97 99 
2	98 203 
2	98 205 
2	100 101 
2	100 102 
2	100 104 
2	100 105 
2	100 153 
2	100 154 
2	101 104 
2	102 105 
2	102 154 
2	103 104 
2	103 105 
2	104 105 
2	106 109 
2	106 135 
2	106 142 
2	106 143 
2	106 220 
2	107 108 
2	107 110 
2	108 110 
2	108 139 
2	108 144 
2	109 110 
2	109 142 
2	109 144 
2	110 144 
2	111 112 
2	111 114 
2	111 123 
2	111 145 
2	111 146 
2	112 114 
2	112 115 
2	112 121 
2	112 123 
2	112 201 
2	112 202 
2	112 203 
2	113 114 
2	113 201 
2	113 224 
2	114 201 
2	115 116 
2	115 118 
2	115 120 
2	115 121 
2	115 202 
2	116 117 
2	116 118 
2	116 120 
2	116 207 
2	116 208 
2	117 118 
2	117 204 
2	117 207 
2	118 202 
2	118 204 
2	119 120 
2	119 121 
2	119 123 
2	119 146 
2	120 121 
2	120 122 
2	120 208 
2	121 123 
2	122 208 
2	123 146 
2	124 125 
2	124 126 
2	124 128 
2	124 159 
2	124 160 
2	125 126 
2	125 128 
2	125 129 
2	125 209 
2	126 127 
2	126 129 
2	126 156 
2	126 159 
2	127 129 
2	127 156 
2	127 177 
2	127 210 
2	127 227 
2	129 209 
2	129 210 
2	130 132 
2	131 133 
2	131 139 
2	131 141 
2	131 144 
2	131 186 
2	132 133 
2	133 139 
2	134 136 
2	134 137 
2	134 138 
2	134 169 
2	134 216 
2	134 218 
2	134 221 
2	135 136 
2	135 143 
2	135 220 
2	135 221 
2	136 138 
2	136 140 
2	136 143 
2	136 221 
2	137 138 
2	137 187 
2	137 192 
2	137 218 
2	138 140 
2	138 187 
2	139 144 
2	140 141 
2	140 142 
2	140 143 
2	140 185 
2	140 187 
2	141 142 
2	141 144 
2	141 185 
2	141 186 
2	142 143 
2	142 144 
2	145 146 
2	145 147 
2	145 178 
2	145 194 
2	145 197 
2	146 194 
2	147 157 
2	147 178 
2	147 180 
2	147 193 
2	147 197 
2	148 149 
2	148 151 
2	148 152 
2	148 155 
2	148 213 
2	148 214 
2	149 150 
2	149 151 
2	149 155 
2	150 151 
2	150 196 
2	150 215 
2	150 217 
2	151 211 
2	151 214 
2	151 215 
2	152 154 
2	152 155 
2	152 213 
2	153 154 
2	153 155 
2	154 155 
2	156 158 
2	156 159 
2	156 177 
2	156 196 
2	157 158 
2	157 177 
2	157 180 
2	157 193 
2	157 195 
2	158 177 
2	158 195 
2	158 196 
2	159 160 
2	161 163 
2	161 164 
2	161 165 
2	161 166 
2	162 163 
2	162 164 
2	162 181 
2	163 164 
2	164 165 
2	164 181 
2	164 183 
2	165 166 
2	165 183 
2	167 168 
2	167 173 
2	167 175 
2	167 211 
2	167 214 
2	167 215 
2	168 169 
2	168 173 
2	168 215 
2	168 216 
2	168 219 
2	169 216 
2	169 219 
2	169 221 
2	170 171 
2	170 172 
2	170 175 
2	170 212 
2	171 172 
2	172 173 
2	172 174 
2	172 175 
2	173 174 
2	173 175 
2	173 219 
2	174 191 
2	174 219 
2	174 223 
2	175 212 
2	175 214 
2	176 177 
2	176 179 
2	176 180 
2	176 226 
2	176 227 
2	177 180 
2	177 227 
2	178 179 
2	178 180 
2	179 180 
2	179 224 
2	179 226 
2	181 183 
2	181 184 
2	182 184 
2	183 184 
2	185 186 
2	185 187 
2	185 188 
2	186 188 
2	189 190 
2	191 223 
2	192 193 
2	192 195 
2	192 197 
2	192 218 
2	193 195 
2	193 197 
2	194 197 
2	195 196 
2	195 217 
2	195 218 
2	196 217 
2	198 199 
2	198 200 
2	198 206 
2	198 208 
2	199 200 
2	199 206 
2	201 203 
2	202 203 
2	202 204 
2	202 205 
2	203 205 
2	204 205 
2	206 207 
2	206 208 
2	207 208 
2	209 210 
2	210 225 
2	210 227 
2	211 214 
2	211 215 
2	212 213 
2	212 214 
2	213 214 
2	215 216 
2	215 217 
2	216 217 
2	216 218 
2	217 218 
2	219 221 
2	219 222 
2	219 223 
2	220 221 
2	220 222 
2	221 222 
2	222 223 
2	224 226 
2	225 226 
2	225 227 
2	226 227 
0	

2
 0.252912 1
2
 0.991845 1
2
 1 0.117826
2
 1 0.401037
2
 1 0.16167
2
 1 0.481778
2
 1 0.332971
2
 0.911507 1
2
 1 0.552811
2
 0.527711 1
2
 1 0.37176
2
 1 0.113517
2
 1 0.0814622
2
 1 0.132089
2
 1 0.99585
2
 1 0.17593
2
 1 0.483071
2
 1 0.436745
2
 1 0.224437
2
 1 0.428246
2
 1 0.206191
2
 1 0.236312
2
 1 0.206571
2
 1 0.0490359
2
 1 0.0479476
2
 1 0.0700495
2
 1 0.0797795
2
 1 0.0410184
2
 1 0.0750859
2
 1 0.0731714
2
 1 0.109541
2
 1 0.0331204
2
 1 0.0689384
2
 1 0.0936295
2
 1 0.107393
2
 1 0.0956268
2
 1 0.292299
2
 1 0.0765296
2
 1 0.105192
2
 1 0.137587
2
 0.929276 1
2
 0.557565 1
2
 1 0.12105
2
 1 0.0592312
2
 1 0.115225
2
 1 0.186894
2
 0.811071 1
2
 1 0.216968
2
 0.612641 1
2
 1 0.9165
2
 0.835481 1
2
 1 0.0778836
2
 1 0.346404
2
 0.641652 1
2
 0.347829 1
2
 1 0.915529
2
 1 0.65659
2
 1 0.253117
2
 1 0.88641
2
 1 0.520234
2
 0.984078 1
2
 1 0.246874
2
 0.198736 1
2
 1 0.171905
2
 1 0.138032
2
 1 0.0677386
2
 1 0.191994
2
 1 0.117923
2
 1 0.170817
2
 1 0.171967
2
 1 0.0919171
2
 1 0.118172
2
 1 0.118582
2
 1 0.0723333
2
 1 0.116564
2
 1 0.0682601
2
 1 0.274776
2
 1 0.190637
2
 1 0.147413
2
 1 0.207705
2
 1 0.399518
2
 1 0.802483
2
 1 0.133028
2
 1 0.197142
2
 1 0.110642
2
 0.0759855 1
2
 0.451637 1
2
 0.578205 1
2
 0.0960527 1
2
 0.336378 1
2
 1 0.295471
2
 1 0.103228
2
 1 0.181774
2
 1 0.17203
2
 1 0.193489
2
 1 0.331478
2
 1 0.558046
2
 1 0.491795
2
 1 0.40793
2
 1 0.252247
2
 0.742607 1
2
 0.395685 1
2
 1 0.102038
2
 1 0.106382
2
 1 0.476628
2
 1 0.0684228
2
 1 0.28139
2
 1 0.0627492
2
 1 0.0821921
2
 1 0.0710212
2
 1 0.0706459
2
 0.514366 1
2
 0.752668 1
2
 0.452712 1
2
 0.0833375 1
2
 1 0.427617
2
 1 0.459014
2
 1 0.340834
2
 1 0.346868
2
 0.345185 1
2
 1 0.498055
2
 1 0.343551
2
 1 0.602447
2
 0.621193 1
2
 0.487543 1
2
 0.947703 1
2
 1 0.96272
2
 0.789607 1
2
 0.91633 1
2
 1 0.804229
2
 0.54261 1
2
 0.570268 1
2
 0.336184 1
2
 0.459687 1
2
 1 0.192569
2
 1 0.248954
2
 1 0.0860401
2
 1 0.302781
2
 1 0.286718
2
 1 0.174058
2
 1 0.782952
2
 0.517362 1
2
 1 0.206434
2
 1 0.127087
2
 1 0.144403
2
 0.0885948 1
2
 0.0885009 1
2
 0.0586396 1
2
 1 0.152186
2
 1 0.317902
2
 1 0.467174
2
 1 0.314408
2
 1 0.155868
2
 1 0.642135
2
 1 0.116159
2
 1 0.400964
2
 0.0930801 1
2
 0.0865884 1
2
 0.0681579 1
2
 0.0907994 1
2
 0.107525 1
2
 1 0.216939
2
 1 0.199167
2
 1 0.134694
2
 1 0.198627
2
 1 0.456485
2
 1 0.146345
2
 1 0.29613
2
 1 0.135934
2
 1 0.138492
2
 1 0.0838808
2
 1 0.0438173
2
 1 0.0446556
2
 1 0.0747792
2
 1 0.0842552
2
 1 0.0810921
2
 1 0.535462
2
 1 0.881094
2
 1 0.570036
2
 1 0.537158
2
 1 0.471288
2
 1 0.335069
2
 1 0.326254
2
 1 0.287284
2
 1 0.522319
2
 0.539984 1
2
 0.405817 1
2
 0.279963 1
2
 0.261778 1
2
 0.529681 1
2
 1 0.731801
2
 1 0.289054
2
 0.778171 1
2
 0.265853 1
2
 0.277149 1
2
 0.78899 1
2
 0.422774 1
2
 0.358775 1
2
 1 0.818628
2
 1 0.216935
2
 1 0.148422
2
 1 0.725638
2
 1 0.355888
2
 1 0.415639
2
 1 0.322433
2
 1 0.301489
2
 1 0.13819
2
 1 0.268985
2
 1 0.311592
2
 1 0.846051
2
 0.96688 1
2
 1 0.167992
2
 1 0.255061
2
 1 0.177106
2
 1 0.206002
2
 1 0.132962
2
 1 0.239661
2
 1 0.327887
2
 1 0.33253
2
 1 0.0909527
2
 1 0.0724536
2
 1 0.119562
2
 1 0.177789
2
 1 0.0914026
2
 1 0.694285
2
 1 0.368243
2
 1 0.694353
2
 1 0.782699
4
 0.934563 0.246024 0.246024 1
4
 0.939087 0.248903 0.248903 1
4
 0.933515 0.244154 0.244154 1
4
 0.936087 0.244424 0.244424 1
4
 0.942681 0.248473 0.248473 1
4
 0.943898 0.251563 0.251563 1
4
 0.94231 0.249323 0.249323 1
4
 0.935771 0.248254 0.248254 1
4
 0.930218 0.243517 0.243517 1
4
 0.931053 0.246565 0.246565 1
4
 0.93535 0.249819 0.249819 1
4
 0.943156 0.254133 0.254133 1
4
 0.939878 0.252743 0.252743 1
4
 0.945118 0.253843 0.253843 1
4
 0.946498 0.256502 0.256502 1
4
 0.931735 0.241933 0.241933 1
4
 0.92709 0.239199 0.239199 1
4
 0.947454 0.261694 0.261694 1
4
 0.947295 0.25916 0.25916 1
4
 0.944003 0.257743 0.257743 1
4
 0.950652 0.261576 0.261576 1
4
 0.954074 0.265021 0.265021 1
4
 0.952361 0.265055 0.265055 1
4
 0.93514 0.251023 0.251023 1
4
 0.932465 0.250513 0.250513 1
4
 0.94289 0.258235 0.258235 1
4
 0.940193 0.25771 0.25771 1
4
 0.941408 0.260047 0.260047 1
4
 0.947134 0.264029 0.264029 1
4
 0.951238 0.265561 0.265561 1
4
 0.942732 0.255735 0.255735 1
4
 0.949372 0.259538 0.259538 1
4
 0.936768 0.25382 0.25382 1
4
 0.935296 0.2556 0.2556 1
4
 0.947183 0.281898 0.281898 1
4
 0.945324 0.278274 0.278274 1
4
 0.946493 0.277873 0.277873 1
4
 0.952998 0.285394 0.285394 1
4
 0.951128 0.281726 0.281726 1
4
 0.954873 0.28528 0.28528 1
4
 0.943732 0.278569 0.278569 1
4
 0.949739 0.285866 0.285866 1
4
 0.946969 0.285152 0.285152 1
4
 0.943045 0.274592 0.274592 1
4
 1 0.344161 0.344161 0.95277
4
 1 0.348062 0.348062 0.947382
4
 1 0.34475 0.34475 0.947541
4
 1 0.342926 0.342926 0.951059
4
 0.942201 0.261866 0.261866 1
4
 0.939137 0.26092 0.26092 1
4
 0.937082 0.260539 0.260539 1
4
 0.94969 0.26864 0.26864 1
4
 0.944849 0.264915 0.264915 1
4
 0.95204 0.267419 0.267419 1
4
 0.953323 0.269969 0.269969 1
4
 0.946601 0.267668 0.267668 1
4
 0.949476 0.271288 0.271288 1
4
 0.95509 0.275517 0.275517 1
4
 0.957292 0.275716 0.275716 1
4
 0.955091 0.272775 0.272775 1
4
 0.944637 0.267527 0.267527 1
4
 0.939717 0.263572 0.263572 1
4
 0.944424 0.270164 0.270164 1
4
 0.94257 0.267137 0.267137 1
4
 0.953108 0.275372 0.275372 1
4
 0.950275 0.274556 0.274556 1
4
 0.942781 0.27168 0.27168 1
4
 0.948834 0.277998 0.277998 1
4
 0.948622 0.276097 0.276097 1
4
 0.939505 0.266171 0.266171 1
4
 0.947185 0.273564 0.273564 1
4
 1 0.282713 0.282713 0.986957
4
 1 0.282485 0.282485 0.99001
4
 1 0.284492 0.284492 0.989955
4
 1 0.286435 0.286435 0.985186
4
 1 0.28554 0.28554 0.980879
4
 1 0.287206 0.287206 0.98077
4
 1 0.275541 0.275541 0.99659
4
 0.996907 0.272209 0.272209 1
4
 1 0.277767 0.277767 0.994578
4
 1 0.277543 0.277543 0.997654
4
 0.998251 0.276182 0.276182 1
4
 0.994 0.271982 0.271982 1
4
 1 0.273462 0.273462 0.998999
4
 1 0.278182 0.278182 0.990509
4
 1 0.278275 0.278275 0.987066
4
 0.989046 0.266232 0.266232 1
4
 0.991603 0.26928 0.26928 1
4
 1 0.280203 0.280203 0.991567
4
 1 0.283233 0.283233 0.982422
4
 1 0.280523 0.280523 0.985073
4
 1 0.279094 0.279094 0.99872
4
 1 0.281966 0.281966 0.994579
4
 1 0.281076 0.281076 0.998664
4
 0.99294 0.27321 0.27321 1
4
 0.993887 0.276298 0.276298 1
4
 0.989878 0.272148 0.272148 1
4
 1 0.285909 0.285909 0.989733
4
 0.998025 0.280304 0.280304 1
4
 1 0.287371 0.287371 0.9904
4
 1 0.285752 0.285752 0.99458
4
 1 0.283643 0.283643 0.998104
4
 0.986162 0.26601 0.26601 1
4
 0.979319 0.260491 0.260491 1
4
 0.981852 0.263473 0.263473 1
4
 0.985663 0.268009 0.268009 1
4
 1 0.288637 0.288637 0.98055
4
 1 0.289334 0.289334 0.985629
4
 1 0.290478 0.290478 0.981266
4
 0.988532 0.322225 0.322225 1
4
 1 0.333772 0.333772 0.99935
4
 0.992258 0.32475 0.32475 1
4
 0.993484 0.328636 0.328636 1
4
 0.988421 0.32408 0.32408 1
4
 0.999528 0.330347 0.330347 1
4
 0.995887 0.326446 0.326446 1
4
 0.979637 0.312233 0.312233 1
4
 0.985208 0.318099 0.318099 1
4
 0.976177 0.310382 0.310382 1
4
 0.976012 0.312023 0.312023 1
4
 0.981398 0.317442 0.317442 1
4
 0.983329 0.31468 0.31468 1
4
 0.974316 0.307047 0.307047 1
4
 0.972185 0.303547 0.303547 1
4
 0.982281 0.311913 0.311913 1
4
 0.976726 0.306162 0.306162 1
4
 0.998517 0.333658 0.333658 1
4
 1 0.336631 0.336631 0.992026
4
 1 0.339679 0.339679 0.988079
4
 1 0.333862 0.333862 0.995429
4
 0.987867 0.317772 0.317772 1
4
 0.992538 0.322266 0.322266 1
4
 1 0.286765 0.286765 0.973144
4
 1 0.283328 0.283328 0.979008
4
 1 0.289128 0.289128 0.97227
4
 1 0.287735 0.287735 0.976264
4
 0.940883 0.246213 0.246213 1
4
 0.934617 0.241263 0.241263 1
4
 0.929645 0.239463 0.239463 1
4
 0.930324 0.238517 0.238517 1
4
 0.94565 0.2479 0.2479 1
4
 0.949588 0.250239 0.250239 1
4
 0.9412 0.245259 0.245259 1
4
 0.951936 0.254136 0.254136 1
4
 0.947138 0.251148 0.251148 1
4
 0.954184 0.254438 0.254438 1
4
 1 0.322344 0.322344 0.95523
4
 1 0.313606 0.313606 0.958183
4
 1 0.319218 0.319218 0.956947
4
 1 0.316282 0.316282 0.95926
4
 1 0.313835 0.313835 0.960284
4
 1 0.285269 0.285269 0.971614
4
 1 0.28402 0.28402 0.97577
4
 1 0.289835 0.289835 0.969054
4
 1 0.28185 0.28185 0.977469
4
 1 0.330054 0.330054 0.982488
4
 1 0.334206 0.334206 0.976768
4
 1 0.335145 0.335145 0.978855
4
 1 0.329271 0.329271 0.986192
4
 1 0.334077 0.334077 0.982655
4
 1 0.330414 0.330414 0.987078
4
 1 0.326183 0.326183 0.981605
4
 1 0.328457 0.328457 0.980669
4
 1 0.332588 0.332588 0.974959
4
 1 0.3291 0.3291 0.974137
4
 1 0.331645 0.331645 0.972662
4
 1 0.326526 0.326526 0.977425
4
 1 0.325265 0.325265 0.985139
4
 1 0.3199 0.3199 0.988296
4
 1 0.320296 0.320296 0.991075
4
 1 0.321923 0.321923 0.991521
4
 1 0.323353 0.323353 0.98188
4
 1 0.322017 0.322017 0.984917
4
 1 0.331652 0.331652 0.978469
4
 1 0.324168 0.324168 0.990575
4
 1 0.326755 0.326755 0.98791
4
 1 0.336768 0.336768 0.97485
4
 1 0.339634 0.339634 0.970154
4
 1 0.337852 0.337852 0.968412
4
 1 0.334871 0.334871 0.97048
4
 1 0.302574 0.302574 0.964009
4
 1 0.301146 0.301146 0.968622
4
 1 0.304066 0.304066 0.966232
4
 1 0.306789 0.306789 0.961739
4
 1 0.298437 0.298437 0.966719
4
 1 0.296907 0.296907 0.971399
4
 1 0.299324 0.299324 0.969873
4
 1 0.310105 0.310105 0.992298
4
 1 0.314357 0.314357 0.991352
4
 1 0.314946 0.314946 0.98702
4
 1 0.312883 0.312883 0.987685
4
 1 0.310372 0.310372 0.995368
4
 1 0.307114 0.307114 0.991573
4
 1 0.311067 0.311067 0.987795
4
 1 0.304178 0.304178 0.997213
4
 1 0.308571 0.308571 0.995479
4
 1 0.305963 0.305963 0.997325
4
 1 0.317211 0.317211 0.993303
4
 1 0.314252 0.314252 0.99481
4
 1 0.317412 0.317412 0.986189
4
 1 0.318914 0.318914 0.987131
4
 1 0.312802 0.312802 0.99453
4
 0.947724 0.247848 0.247848 1
4
 0.943265 0.243578 0.243578 1
4
 0.939353 0.242916 0.242916 1
4
 0.939089 0.241545 0.241545 1
4
 0.947459 0.242779 0.242779 1
4
 0.943001 0.240193 0.240193 1
4
 0.938037 0.236533 0.236533 1
4
 0.937774 0.235198 0.235198 1
4
 0.947832 0.241146 0.241146 1
4
 0.95167 0.248524 0.248524 1
4
 0.955311 0.252265 0.252265 1
4
 0.947192 0.245877 0.245877 1
4
 0.956276 0.254385 0.254385 1
4
 0.955311 0.250588 0.250588 1
4
 0.947193 0.244243 0.244243 1
4
 0.956976 0.250439 0.250439 1
4
 0.952046 0.245212 0.245212 1
4
 0.954883 0.247999 0.247999 1
4
 0.964365 0.258586 0.258586 1
4
 0.96377 0.256839 0.256839 1
4
 0.960637 0.254209 0.254209 1
4
 0.959935 0.256497 0.256497 1
4
 0.938563 0.239624 0.239624 1
4
 0.937773 0.237959 0.237959 1
4
 0.98488 0.298236 0.298236 1
4
 0.97514 0.290698 0.290698 1
4
 0.979916 0.294729 0.294729 1
4
 0.986209 0.297586 0.297586 1
4
 0.980632 0.292587 0.292587 1
4
 0.975689 0.289146 0.289146 1
4
 0.971261 0.286466 0.286466 1
4
 0.968751 0.301748 0.301748 1
4
 0.966415 0.30125 0.30125 1
4
 0.970711 0.30684 0.30684 1
4
 0.964301 0.297817 0.297817 1
4
 0.961922 0.293739 0.293739 1
4
 0.960249 0.293914 0.293914 1
4
 0.971148 0.300878 0.300878 1
4
 0.967774 0.297244 0.297244 1
4
 0.957933 0.293429 0.293429 1
4
 0.960518 0.297559 0.297559 1
4
 0.95557 0.289411 0.289411 1
4
 0.959118 0.289124 0.289124 1
4
 0.963058 0.292691 0.292691 1
4
 0.956481 0.29366 0.29366 1
4
 0.951126 0.28886 0.28886 1
4
 0.930638 0.237593 0.237593 1
4
 0.93467 0.238972 0.238972 1
4
 0.925686 0.235822 0.235822 1
4
 0.930377 0.236253 0.236253 1
4
 0.924907 0.232626 0.232626 1
4
 0.928915 0.233976 0.233976 1
4
 0.933622 0.235972 0.235972 1
4
 0.922574 0.228191 0.228191 1
4
 0.928134 0.23235 0.23235 1
4
 0.927249 0.230137 0.230137 1
4
 0.926989 0.228839 0.228839 1
4
 0.932575 0.23301 0.23301 1
4
 1 0.294179 0.294179 0.968185
4
 1 0.290815 0.290815 0.972161
4
 1 0.292761 0.292761 0.972162
4
 1 0.294629 0.294629 0.972872
4
 1 0.29126 0.29126 0.976868
4
 1 0.345325 0.345325 0.955825
4
 1 0.346255 0.346255 0.951541
4
 1 0.341146 0.341146 0.955234
4
 1 0.341131 0.341131 0.960505
4
 1 0.338121 0.338121 0.962557
4
 1 0.339064 0.339064 0.958888
4
 1 0.350358 0.350358 0.955021
4
 1 0.355502 0.355502 0.949407
4
 1 0.351226 0.351226 0.960399
4
 1 0.347928 0.347928 0.961424
4
 1 0.349087 0.349087 0.958567
4
 1 0.354193 0.354193 0.955344
4
 1 0.357407 0.357407 0.948928
4
 1 0.351653 0.351653 0.949087
4
 1 0.34924 0.34924 0.95042
4
 1 0.353416 0.353416 0.949087
4
 1 0.347038 0.347038 0.958244
4
 1 0.344072 0.344072 0.959374
4
 1 0.352599 0.352599 0.944833
4
 1 0.356816 0.356816 0.943508
4
 1 0.360527 0.360527 0.943032
4
 0.969197 0.261106 0.261106 1
4
 0.971703 0.265419 0.265419 1
4
 0.975092 0.26599 0.26599 1
4
 0.96534 0.260759 0.260759 1
4
 0.978436 0.275013 0.275013 1
4
 0.985327 0.280971 0.280971 1
4
 0.975583 0.274784 0.274784 1
4
 0.982123 0.280422 0.280422 1
4
 0.9752 0.270262 0.270262 1
4
 0.980361 0.273987 0.273987 1
4
 0.983669 0.278468 0.278468 1
4
 0.973941 0.272337 0.272337 1
4
 0.971756 0.269108 0.269108 1
4
 0.969796 0.258536 0.258536 1
4
 0.965449 0.256686 0.256686 1
4
 0.971977 0.261202 0.261202 1
4
 0.97449 0.264192 0.264192 1
4
 0.978766 0.271674 0.271674 1
4
 0.97701 0.268556 0.268556 1
4
 0.970176 0.266836 0.266836 1
4
 0.967239 0.263275 0.263275 1
4
 1 0.340315 0.340315 0.975234
4
 1 0.340589 0.340589 0.972227
4
 1 0.336638 0.336638 0.980726
4
 1 0.348498 0.348498 0.969611
4
 1 0.344948 0.344948 0.973648
4
 1 0.344584 0.344584 0.977813
4
 1 0.346465 0.346465 0.969502
4
 1 0.346744 0.346744 0.966512
4
 1 0.352987 0.352987 0.9604
4
 1 0.343212 0.343212 0.970536
4
 1 0.33923 0.33923 0.97902
4
 1 0.342574 0.342574 0.977702
4
 1 0.344632 0.344632 0.964668
4
 1 0.341686 0.341686 0.965806
4
 0.959982 0.2822 0.2822 1
4
 0.957344 0.283301 0.283301 1
4
 0.961114 0.286875 0.286875 1
4
 0.957129 0.281364 0.281364 1
4
 0.965875 0.287612 0.287612 1
4
 0.965658 0.288998 0.288998 1
4
 0.955894 0.278836 0.278836 1
4
 0.964792 0.284001 0.284001 1
4
 0.964629 0.285028 0.285028 1
4
 0.960954 0.279866 0.279866 1
4
 0.957236 0.285407 0.285407 1
4
 0.953267 0.279925 0.279925 1
4
 0.965549 0.291147 0.291147 1
4
 0.964953 0.292574 0.292574 1
4
 0.966643 0.255889 0.255889 1
4
 0.973015 0.25787 0.25787 1
4
 0.964529 0.253395 0.253395 1
4
 0.967676 0.254315 0.254315 1
4
 0.973179 0.260391 0.260391 1
4
 0.976792 0.26231 0.26231 1
4
 0.960206 0.251582 0.251582 1
4
 0.969689 0.254449 0.254449 1
4
 0.978824 0.262449 0.262449 1
4
 0.955259 0.24633 0.24633 1
4
 0.958375 0.247224 0.247224 1
4
 0.961231 0.250034 0.250034 1
4
 1 0.329075 0.329075 0.954052
4
 1 0.32307 0.32307 0.9591
4
 1 0.326575 0.326575 0.958778
4
 1 0.324191 0.324191 0.959963
4
 1 0.323484 0.323484 0.956518
4
 1 0.34173 0.34173 0.949991
4
 1 0.340237 0.340237 0.948605
4
 1 0.338437 0.338437 0.952127
4
 1 0.337848 0.337848 0.957166
4
 1 0.335888 0.335888 0.957273
4
 1 0.334226 0.334226 0.952019
4
 1 0.328997 0.328997 0.958025
4
 1 0.331708 0.331708 0.957165
4
 1 0.33442 0.33442 0.955876
4
 0.987261 0.303245 0.303245 1
4
 0.985378 0.299986 0.299986 1
4
 0.992931 0.307031 0.307031 1
4
 0.991706 0.302895 0.302895 1
4
 0.995611 0.30774 0.30774 1
4
 0.982284 0.299679 0.299679 1
4
 0.986816 0.307198 0.307198 1
4
 0.98898 0.307647 0.307647 1
4
 0.989814 0.306716 0.306716 1
4
 0.977332 0.296649 0.296649 1
4
 0.981676 0.302658 0.302658 1
4
 0.977112 0.298079 0.298079 1
4
 0.975633 0.292404 0.292404 1
4
 0.970715 0.289448 0.289448 1
4
 0.967016 0.284206 0.284206 1
4
 0.975468 0.293461 0.293461 1
4
 0.992038 0.315089 0.315089 1
4
 0.98676 0.31066 0.31066 1
4
 0.996225 0.316623 0.316623 1
4
 0.991648 0.311977 0.311977 1
4
 0.984325 0.306918 0.306918 1
4
 0.990701 0.316831 0.316831 1
4
 0.989312 0.314216 0.314216 1
4
 0.998801 0.320247 0.320247 1
4
 0.995385 0.321312 0.321312 1
4
 1 0.324312 0.324312 0.999404
4
 0.98543 0.312378 0.312378 1
4
 0.981234 0.30917 0.30917 1
4
 0.99148 0.319432 0.319432 1
4
 0.981621 0.306068 0.306068 1
4
 0.979858 0.306618 0.306618 1
4
 1 0.319217 0.319217 0.996544
4
 0.998858 0.315624 0.315624 1
4
 0.9997 0.314669 0.314669 1
4
 1 0.314642 0.314642 0.997607
4
 0.998409 0.317085 0.317085 1
4
 1 0.323399 0.323399 0.994309
4
 1 0.324521 0.324521 0.995203
4
 0.994661 0.311487 0.311487 1
4
 1 0.327111 0.327111 0.992525
4
 0.998186 0.311263 0.311263 1
4
 0.953166 0.257297 0.257297 1
4
 0.959017 0.261358 0.261358 1
4
 0.951562 0.255006 0.255006 1
4
 0.961552 0.26184 0.26184 1
4
 0.958641 0.258346 0.258346 1
4
 0.955792 0.260605 0.260605 1
4
 0.948361 0.254271 0.254271 1
4
 0.953379 0.259934 0.259934 1
4
 0.951347 0.259243 0.259243 1
4
 0.963118 0.267616 0.267616 1
4
 0.959232 0.264036 0.264036 1
4
 0.966369 0.268389 0.268389 1
4
 0.964201 0.265207 0.265207 1
4
 0.960687 0.266926 0.266926 1
4
 0.967834 0.271326 0.271326 1
4
 0.967942 0.273852 0.273852 1
4
 0.96209 0.269722 0.269722 1
4
 0.964253 0.272503 0.272503 1
4
 0.954772 0.262656 0.262656 1
4
 0.958209 0.266114 0.266114 1
4
 1 0.342824 0.342824 0.962936
4
 1 0.331359 0.331359 0.969662
4
 1 0.332284 0.332284 0.965967
4
 1 0.326877 0.326877 0.970588
4
 1 0.330356 0.330356 0.966075
4
 1 0.326245 0.326245 0.97441
4
 1 0.336894 0.336894 0.96613
4
 1 0.334853 0.334853 0.964504
4
 1 0.310879 0.310879 0.97797
4
 1 0.306655 0.306655 0.987018
4
 1 0.310131 0.310131 0.981436
4
 1 0.306081 0.306081 0.982759
4
 1 0.303508 0.303508 0.987738
4
 1 0.303501 0.303501 0.99046
4
 1 0.309425 0.309425 0.977256
4
 1 0.31696 0.31696 0.968027
4
 1 0.320636 0.320636 0.964284
4
 1 0.319937 0.319937 0.960825
4
 1 0.315477 0.315477 0.96732
4
 1 0.313657 0.313657 0.976105
4
 1 0.316927 0.316927 0.972932
4
 1 0.31806 0.31806 0.968897
4
 1 0.312943 0.312943 0.971948
4
 1 0.309395 0.309395 0.985136
4
 1 0.309865 0.309865 0.986963
4
 1 0.303003 0.303003 0.996373
4
 1 0.302781 0.302781 0.994193
4
 1 0.316164 0.316164 0.97638
4
 1 0.313378 0.313378 0.981382
4
 1 0.333838 0.333838 0.960935
4
 1 0.322193 0.322193 0.971623
4
 1 0.322959 0.322959 0.967974
4
 1 0.320602 0.320602 0.96917
4
 1 0.318732 0.318732 0.977533
4
 1 0.316644 0.316644 0.978191
4
 1 0.325722 0.325722 0.966399
4
 1 0.328407 0.328407 0.965532
4
 1 0.321459 0.321459 0.975943
4
 1 0.324321 0.324321 0.973863
4
 1 0.324115 0.324115 0.96396
4
 1 0.329188 0.329188 0.961906
4
 0.996954 0.30707 0.30707 1
4
 0.990038 0.298202 0.298202 1
4
 0.987428 0.297157 0.297157 1
4
 0.997235 0.305739 0.305739 1
4
 0.995389 0.302594 0.302594 1
4
 1 0.310269 0.310269 0.99884
4
 0.984219 0.290218 0.290218 1
4
 0.984439 0.293192 0.293192 1
4
 0.98201 0.28966 0.28966 1
4
 0.988594 0.294129 0.294129 1
4
 0.992376 0.298556 0.298556 1
4
 0.986879 0.276697 0.276697 1
4
 0.991767 0.281132 0.281132 1
4
 0.99021 0.276573 0.276573 1
4
 0.985108 0.273522 0.273522 1
4
 0.994054 0.280399 0.280399 1
4
 0.996009 0.283576 0.283576 1
4
 0.987266 0.279923 0.279923 1
4
 0.98882 0.279833 0.279833 1
4
 0.98218 0.272258 0.272258 1
4
 0.992156 0.28441 0.28441 1
4
 0.987376 0.283945 0.283945 1
4
 0.997407 0.290259 0.290259 1
4
 0.993326 0.288159 0.288159 1
4
 0.999594 0.289232 0.289232 1
4
 0.997968 0.28679 0.28679 1
4
 0.998976 0.290166 0.290166 1
4
 0.986603 0.271038 0.271038 1
4
 0.985496 0.272135 0.272135 1
4
 0.994445 0.278977 0.278977 1
4
 0.978988 0.265015 0.265015 1
4
 0.977889 0.266088 0.266088 1
4
 0.98152 0.268048 0.268048 1
4
 0.973557 0.275556 0.275556 1
4
 0.968923 0.268884 0.268884 1
4
 0.971209 0.274643 0.274643 1
4
 0.977611 0.277693 0.277693 1
4
 0.978709 0.282633 0.282633 1
4
 0.976348 0.281697 0.281697 1
4
 0.979203 0.285717 0.285717 1
4
 0.985768 0.290125 0.290125 1
4
 0.985325 0.288086 0.288086 1
4
 0.973666 0.278121 0.278121 1
4
 0.982619 0.284429 0.284429 1
4
 0.980084 0.28121 0.28121 1
4
 0.963823 0.262151 0.262151 1
4
 0.951231 0.295464 0.295464 1
4
 0.95546 0.297455 0.297455 1
4
 0.954656 0.295388 0.295388 1
4
 0.949311 0.29056 0.29056 1
4
 0.957178 0.301913 0.301913 1
4
 0.961434 0.303947 0.303947 1
4
 0.96701 0.309429 0.309429 1
4
 0.956426 0.299954 0.299954 1
4
 0.95987 0.299877 0.299877 1
4
 0.966251 0.307421 0.307421 1
4
 0.9656 0.305202 0.305202 1
4
 0.953692 0.292926 0.292926 1
4
 0.964788 0.303081 0.303081 1
4
 1 0.298965 0.298965 0.984359
4
 1 0.298126 0.298126 0.98226
4
 1 0.295543 0.295543 0.985464
4
 1 0.294648 0.294648 0.990402
4
 1 0.292636 0.292636 0.992016
4
 1 0.295782 0.295782 0.991014
4
 1 0.303015 0.303015 0.982317
4
 1 0.300412 0.300412 0.980332
4
 1 0.29805 0.29805 0.989069
4
 1 0.300467 0.300467 0.987293
4
 1 0.303821 0.303821 0.977694
4
 1 0.302221 0.302221 0.987183
4
 1 0.305594 0.305594 0.977585
4
 1 0.308113 0.308113 0.976707
4
 1 0.291963 0.291963 0.981928
4
 1 0.294341 0.294341 0.980386
4
 1 0.292601 0.292601 0.985464
4
 1 0.289175 0.289175 0.990456
4
 1 0.295505 0.295505 0.976046
4
 1 0.298739 0.298739 0.976376
4
 1 0.3008 0.3008 0.972109
4
 1 0.296151 0.296151 0.979561
4
 1 0.301636 0.301636 0.973967
4
 1 0.296974 0.296974 0.981433
4
 1 0.302969 0.302969 0.97561
4
 1 0.306436 0.306436 0.965202
4
 1 0.305059 0.305059 0.971346
4
 1 0.306661 0.306661 0.967318
4
 1 0.290954 0.290954 0.989623
4
 1 0.291505 0.291505 0.99118
4
 0.97039 0.27871 0.27871 1
4
 0.970717 0.28277 0.28277 1
4
 0.973228 0.282688 0.282688 1
4
 0.96409 0.27716 0.27716 1
4
 0.966692 0.277338 0.277338 1
4
 0.974158 0.281156 0.281156 1
4
 0.967616 0.275835 0.275835 1
4
 0.976895 0.288729 0.288729 1
4
 0.979422 0.288645 0.288645 1
4
 0.974485 0.285251 0.285251 1
4
 0.96756 0.282688 0.282688 1
4
 0.965335 0.279673 0.279673 1
4
 0.971201 0.310706 0.310706 1
4
 0.97656 0.316102 0.316102 1
4
 0.986314 0.323758 0.323758 1
4
 0.975902 0.313819 0.313819 1
4
 1 0.320837 0.320837 0.979787
4
 1 0.315923 0.315923 0.98254
4
 1 0.319511 0.319511 0.982817
4
 1 0.322356 0.322356 0.980723
4
 1 0.3592 0.3592 0.948928
4
 1 0.309407 0.309407 0.962821
4
 0.99405 0.296752 0.296752 1
4
 0.993604 0.294666 0.294666 1
4
 0.997852 0.301219 0.301219 1
4
 1 0.299887 0.299887 0.999847
4
 0.989706 0.291968 0.291968 1
4
 0.993938 0.29846 0.29846 1
4
 0.99959 0.306101 0.306101 1
4
 0.98671 0.286635 0.286635 1
4
 0.992656 0.290888 0.290888 1
4
 0.995782 0.295097 0.295097 1
4
 0.990096 0.287596 0.287596 1
4
 1 0.335832 0.335832 0.987135
4
 1 0.338872 0.338872 0.983208
4
 1 0.333069 0.333069 0.990522
4
 1 0.331885 0.331885 0.988965
4
 1 0.339142 0.339142 0.985806
4
 1 0.333334 0.333334 0.99314
4
 0.970333 0.291894 0.291894 1
4
 0.974646 0.297807 0.297807 1
4
 0.97744 0.302925 0.302925 1
4
 0.974044 0.299266 0.299266 1
4
 0.969515 0.294739 0.294739 1
4
 0.972295 0.299804 0.299804 1
4
 0.999809 0.32782 0.32782 1
4
 1 0.329417 0.329417 0.994981
4
 1 0.326717 0.326717 0.998619
4
 0.956166 0.265407 0.265407 1
4
 0.957885 0.268936 0.268936 1
4
 0.961766 0.271675 0.271675 1
4
 1 0.290623 0.290623 0.996146
4
 1 0.293747 0.293747 0.99514
4
 1 0.285424 0.285424 0.998161
4
 1 0.288092 0.288092 0.996201
4
 1 0.285965 0.285965 0.999732
4
 1 0.297269 0.297269 0.993968
4
 1 0.293946 0.293946 0.999846
4
 1 0.29633 0.29633 0.998051
4
 1 0.299674 0.299674 0.994918
4
 0.999199 0.296087 0.296087 1
4
 1 0.308932 0.308932 0.972111
4
 1 0.310418 0.310418 0.967917
4
 1 0.308016 0.308016 0.96895
4
 1 0.315881 0.315881 0.964716
4
 1 0.3174 0.3174 0.960554
4
 1 0.312976 0.312976 0.967048
4
 1 0.312048 0.312048 0.963903
4
 0.960954 0.27708 0.27708 1
4
 0.957454 0.271536 0.271536 1
4
 0.960039 0.27171 0.27171 1
4
 0.961333 0.274301 0.274301 1
1
 1

